proyfinal/src/viki/013/experimentInOfficeAgust.take6.output/d3c6ee3f-0aa3-4e2e-926f-cdfdb0a4463d.als.out
Reading from standard input... Use '--help' for help.
============================[ Problem Statistics ]=============================
|                                                                             |
|  Number of variables:         87638                                         |
|  Number of clauses:          161767                                         |
|  Parse time:                   0.04 s                                       |
|                                                                             |
============================[ Search Statistics ]==============================
| Conflicts |          ORIGINAL         |          LEARNT          | Progress |
|           |    Vars  Clauses Literals |    Limit  Clauses Lit/Cl |          |
===============================================================================
|       100 |   63950   110786   276739 |    40621      100     12 | 27.029 % |
|       250 |   55197    84755   212599 |    44683      241     24 | 37.017 % |
|       475 |   55168    84408   211742 |    49152      443     76 | 37.050 % |
|       812 |   55168    84408   211742 |    54067      780     67 | 37.050 % |
|      1318 |   55168    84408   211742 |    59473     1286     81 | 37.050 % |
|      2077 |   55117    84202   211267 |    65421     2041     71 | 37.108 % |
|      3216 |   55091    84059   210955 |    71963     2697     64 | 37.138 % |
|      4924 |   54962    83602   209788 |    79159     4315     61 | 37.285 % |
|      7486 |   54300    81215   204036 |    87075     6781     65 | 38.041 % |
|     11330 |   53710    79130   198834 |    95783     9875     66 | 38.714 % |
|     17096 |   53674    78923   198382 |   105361    15622     70 | 38.755 % |
===============================================================================
restarts              : 90
conflicts             : 24261          (7092 /sec)
decisions             : 74376          (0.00 % random) (21740 /sec)
propagations          : 35209580       (10291904 /sec)
conflict literals     : 1691207        (46.76 % deleted)
Memory used           : 45.08 MB
CPU time              : 3.4211 s

INDETERMINATE
